assets/logs/5_14x14_clingo/5_14x14_clingo.solution.log

---------------------------------------------------------
|122| 35|174| 31|118| 60|170|175|114| 68|166| 72|110|  0|
---------------------------------------------------------
|176|  0|120| 62|172| 29|116| 66|168|177|112| 46|164|  0|
---------------------------------------------------------
| 37|124| 33| 27| 58| 64|142| 99|173| 48| 70|160| 74|108|
---------------------------------------------------------
| 23|178|136|126|140| 97|171| 50|179|101|148|106| 44|162|
---------------------------------------------------------
|134| 39| 25| 95|  0| 56|181|144|  0|104|158|  0|150| 76|
---------------------------------------------------------
|180| 21|  0|138|128| 17|123|169| 52|146|103| 78|156| 42|
---------------------------------------------------------
| 41|132| 93| 19| 73|  0| 54| 32|125|  4|102|152|  0| 80|
---------------------------------------------------------
| 91| 81| 71|130|159|121| 15|  2|167| 34|127|105| 40|154|
---------------------------------------------------------
| 69| 43| 89| 79| 85| 75|157|163| 30|100|  6| 36| 82|  0|
---------------------------------------------------------
|  0|  1| 83| 45|119|161| 28| 13| 12|165|107|129|  8| 38|
---------------------------------------------------------
| 49| 67|  0| 87| 77|147| 14|155| 98|143| 10| 84|  0|131|
---------------------------------------------------------
|  3| 61| 47|117| 55| 26| 11|145| 20|109|  0|137| 92| 86|
---------------------------------------------------------
| 65| 51| 57|  7|149| 16|113| 24|153| 96|141| 88|133|  0|
---------------------------------------------------------
| 59|  5| 63| 53|115|  9|151| 18|111| 22|135| 94|139| 90|
---------------------------------------------------------

| n = 14 | k = 6 | coverage = 186, 94.89795918367346%
 Time 299.967
 Name 5_14x14_clingo

