assets/logs/5_14x14_clingo/5_14x14_clingo.log
clingo version 5.4.0
Reading from ...ts/logs/5_14x14_clingo/knights_tour.lp ...
Solving...
Answer: 1
occ(1,12,11) occ(1,2,2) occ(1,5,12) occ(1,6,3) occ(1,11,3) occ(1,7,6) occ(2,10,2) occ(3,8,8) coverage(6)
Optimization: -6
Answer: 2
occ(1,12,11) occ(1,2,2) occ(1,5,12) occ(1,6,3) occ(1,11,3) occ(1,7,6) occ(2,10,2) occ(3,8,8) coverage(7) occ(4,12,1) occ(6,14,2)
Optimization: -7
Answer: 3
occ(1,12,11) occ(1,2,2) occ(1,5,12) occ(1,6,3) occ(1,11,3) occ(1,7,6) occ(2,10,2) occ(3,8,8) coverage(143) occ(11,1,11) occ(17,1,6) occ(21,1,2) occ(42,1,5) occ(46,1,9) occ(76,1,12) occ(124,1,10) occ(128,1,8) occ(134,1,3) occ(9,2,9) occ(15,2,8) occ(19,2,4) occ(25,2,1) occ(40,2,3) occ(44,2,7) occ(48,2,11) occ(78,2,10) occ(89,2,5) occ(110,2,12) occ(114,2,14) occ(120,2,13) occ(130,2,6) occ(13,3,10) occ(23,3,3) occ(38,3,1) occ(74,3,13) occ(80,3,8) occ(91,3,7) occ(108,3,14) occ(116,3,12) occ(122,3,11) occ(126,3,9) occ(132,3,4) occ(136,3,2) occ(137,3,6) occ(7,4,10) occ(27,4,2) occ(32,4,5) occ(36,4,3) occ(50,4,12) occ(87,4,6) occ(93,4,9) occ(104,4,11) occ(112,4,13) occ(118,4,14) occ(135,4,8) occ(139,4,4) occ(168,4,7) occ(28,5,8) occ(72,5,14) occ(75,5,3) occ(82,5,7) occ(85,5,4) occ(95,5,11) occ(106,5,13) occ(133,5,10) occ(138,5,1) occ(141,5,2) occ(166,5,9) occ(172,5,6) occ(5,6,9) occ(26,6,10) occ(29,6,1) occ(30,6,6) occ(34,6,4) occ(52,6,11) occ(77,6,5) occ(102,6,12) occ(164,6,7) occ(170,6,8) occ(31,7,3) occ(70,7,13) occ(73,7,4) occ(79,7,7) occ(83,7,5) occ(84,7,8) occ(97,7,10) occ(101,7,12) occ(131,7,11) occ(140,7,2) occ(162,7,9) occ(24,8,9) occ(33,8,5) occ(53,8,3) occ(54,8,10) occ(58,8,6) occ(66,8,12) occ(71,8,2) occ(100,8,13) occ(103,8,14) occ(142,8,4) occ(160,8,11) occ(51,9,5) occ(56,9,8) occ(57,9,2) occ(62,9,9) occ(68,9,14) occ(69,9,4) occ(81,9,6) occ(86,9,7) occ(99,9,11) occ(109,9,10) occ(129,9,12) occ(12,10,3) occ(22,10,8) occ(35,10,6) occ(55,10,4) occ(60,10,7) occ(64,10,11) occ(98,10,12) occ(105,10,13) occ(144,10,5) occ(148,10,9) occ(158,10,10) occ(20,11,6) occ(49,11,4) occ(59,11,1) occ(67,11,5) occ(88,11,8) occ(107,11,11) occ(111,11,9) occ(127,11,13) occ(146,11,7) occ(156,11,12) occ(4,12,1) occ(10,12,4) occ(14,12,2) occ(37,12,5) occ(41,12,7) occ(47,12,6) occ(92,12,9) occ(96,12,13) occ(119,12,14) occ(123,12,12) occ(150,12,8) occ(154,12,10) occ(6,13,3) occ(18,13,5) occ(43,13,9) occ(61,13,2) occ(65,13,6) occ(90,13,7) occ(94,13,11) occ(113,13,8) occ(117,13,12) occ(125,13,14) occ(8,14,5) occ(16,14,3) occ(39,14,6) occ(45,14,7) occ(63,14,4) occ(115,14,10) occ(121,14,13) occ(152,14,9)
Optimization: -143
Answer: 4
occ(1,12,11) occ(1,2,2) occ(1,5,12) occ(1,6,3) occ(1,11,3) occ(1,7,6) occ(2,10,2) occ(3,8,8) coverage(145) occ(11,1,11) occ(17,1,6) occ(21,1,2) occ(42,1,5) occ(46,1,9) occ(76,1,12) occ(124,1,10) occ(128,1,8) occ(134,1,3) occ(9,2,9) occ(15,2,8) occ(19,2,4) occ(25,2,1) occ(40,2,3) occ(44,2,7) occ(48,2,11) occ(78,2,10) occ(89,2,5) occ(110,2,12) occ(114,2,14) occ(120,2,13) occ(130,2,6) occ(13,3,10) occ(23,3,3) occ(38,3,1) occ(74,3,13) occ(80,3,8) occ(91,3,7) occ(108,3,14) occ(116,3,12) occ(122,3,11) occ(126,3,9) occ(132,3,4) occ(136,3,2) occ(137,3,6) occ(7,4,10) occ(27,4,2) occ(32,4,5) occ(36,4,3) occ(50,4,12) occ(87,4,6) occ(93,4,9) occ(104,4,11) occ(112,4,13) occ(118,4,14) occ(135,4,8) occ(139,4,4) occ(168,4,7) occ(28,5,8) occ(72,5,14) occ(75,5,3) occ(82,5,7) occ(85,5,4) occ(95,5,11) occ(106,5,13) occ(133,5,10) occ(138,5,1) occ(141,5,2) occ(166,5,9) occ(172,5,6) occ(5,6,9) occ(26,6,10) occ(29,6,1) occ(30,6,6) occ(34,6,4) occ(52,6,11) occ(77,6,5) occ(102,6,12) occ(164,6,7) occ(170,6,8) occ(31,7,3) occ(70,7,13) occ(73,7,4) occ(79,7,7) occ(83,7,5) occ(84,7,8) occ(97,7,10) occ(101,7,12) occ(131,7,11) occ(140,7,2) occ(143,7,1) occ(162,7,9) occ(24,8,9) occ(33,8,5) occ(53,8,3) occ(54,8,10) occ(58,8,6) occ(66,8,12) occ(71,8,2) occ(100,8,13) occ(103,8,14) occ(142,8,4) occ(160,8,11) occ(51,9,5) occ(56,9,8) occ(57,9,2) occ(62,9,9) occ(68,9,14) occ(69,9,4) occ(81,9,6) occ(86,9,7) occ(99,9,11) occ(109,9,10) occ(129,9,12) occ(12,10,3) occ(22,10,8) occ(35,10,6) occ(55,10,4) occ(60,10,7) occ(64,10,11) occ(98,10,12) occ(105,10,13) occ(144,10,5) occ(148,10,9) occ(158,10,10) occ(20,11,6) occ(49,11,4) occ(59,11,1) occ(67,11,5) occ(88,11,8) occ(107,11,11) occ(111,11,9) occ(127,11,13) occ(146,11,7) occ(156,11,12) occ(4,12,1) occ(10,12,4) occ(14,12,2) occ(37,12,5) occ(41,12,7) occ(47,12,6) occ(92,12,9) occ(96,12,13) occ(119,12,14) occ(123,12,12) occ(150,12,8) occ(154,12,10) occ(6,13,3) occ(18,13,5) occ(43,13,9) occ(61,13,2) occ(65,13,6) occ(90,13,7) occ(94,13,11) occ(113,13,8) occ(117,13,12) occ(125,13,14) occ(8,14,5) occ(16,14,3) occ(39,14,6) occ(45,14,7) occ(63,14,4) occ(115,14,10) occ(121,14,13) occ(152,14,9)
Optimization: -145
Answer: 5
occ(1,12,11) occ(1,2,2) occ(1,5,12) occ(1,6,3) occ(1,11,3) occ(1,7,6) occ(2,10,2) occ(3,8,8) coverage(147) occ(11,1,11) occ(19,1,5) occ(23,1,3) occ(32,1,14) occ(40,1,12) occ(46,1,13) occ(132,1,2) occ(176,1,4) occ(180,1,8) occ(9,2,9) occ(17,2,7) occ(25,2,1) occ(34,2,12) occ(38,2,14) occ(42,2,10) occ(48,2,11) occ(52,2,13) occ(89,2,5) occ(134,2,4) occ(178,2,6) occ(13,3,10) occ(21,3,4) occ(30,3,13) occ(44,3,12) occ(70,3,3) occ(80,3,6) occ(91,3,7) occ(130,3,1) occ(136,3,2) occ(174,3,5) occ(7,4,10) occ(15,4,8) occ(27,4,2) occ(28,4,11) occ(36,4,13) occ(50,4,12) occ(54,4,14) occ(68,4,5) occ(72,4,1) occ(76,4,3) occ(87,4,6) occ(93,4,9) occ(168,4,7) occ(75,5,3) occ(78,5,5) occ(82,5,7) occ(85,5,4) occ(95,5,11) occ(106,5,13) occ(128,5,2) occ(133,5,10) occ(137,5,14) occ(138,5,1) occ(166,5,9) occ(172,5,6) occ(5,6,9) occ(26,6,10) occ(29,6,1) occ(56,6,13) occ(66,6,6) occ(74,6,2) occ(77,6,5) occ(108,6,11) occ(126,6,4) occ(135,6,12) occ(164,6,7) occ(170,6,8) occ(31,7,3) occ(73,7,4) occ(79,7,7) occ(83,7,5) occ(84,7,8) occ(97,7,10) occ(101,7,12) occ(104,7,14) occ(131,7,11) occ(139,7,13) occ(140,7,2) occ(162,7,9) occ(24,8,9) occ(33,8,5) occ(58,8,12) occ(64,8,7) occ(71,8,2) occ(103,8,14) occ(110,8,10) occ(114,8,6) occ(124,8,3) occ(129,8,13) occ(142,8,4) occ(160,8,11) occ(57,9,2) occ(62,9,9) occ(69,9,4) occ(81,9,6) occ(86,9,7) occ(99,9,11) occ(102,9,13) occ(109,9,10) occ(112,9,8) occ(118,9,5) occ(122,9,1) occ(141,9,14) occ(145,9,12) occ(22,10,8) occ(35,10,6) occ(55,10,4) occ(60,10,11) occ(105,10,13) occ(116,10,7) occ(120,10,3) occ(127,10,12) occ(144,10,5) occ(148,10,9) occ(158,10,10) occ(12,11,2) occ(20,11,6) occ(59,11,1) occ(67,11,5) occ(88,11,8) occ(100,11,14) occ(107,11,11) occ(111,11,9) occ(143,11,13) occ(146,11,7) occ(156,11,12) occ(4,12,1) occ(10,12,4) occ(37,12,5) occ(41,12,7) occ(47,12,6) occ(53,12,3) occ(92,12,9) occ(98,12,12) occ(119,12,14) occ(125,12,13) occ(150,12,8) occ(154,12,10) occ(6,13,3) occ(14,13,1) occ(18,13,5) occ(43,13,9) occ(49,13,4) occ(61,13,2) occ(65,13,6) occ(90,13,7) occ(96,13,10) occ(113,13,8) occ(117,13,12) occ(123,13,11) occ(8,14,5) occ(16,14,3) occ(39,14,6) occ(45,14,7) occ(51,14,2) occ(63,14,4) occ(94,14,8) occ(115,14,10) occ(121,14,13) occ(152,14,9)
Optimization: -147
Answer: 6
occ(1,12,11) occ(1,2,2) occ(1,5,12) occ(1,6,3) occ(1,11,3) occ(1,7,6) occ(2,10,2) occ(3,8,8) coverage(151) occ(83,1,7) occ(84,1,2) occ(88,1,6) occ(110,1,5) occ(118,1,9) occ(122,1,11) occ(13,2,11) occ(77,2,13) occ(81,2,9) occ(85,2,5) occ(86,2,4) occ(94,2,10) occ(114,2,6) occ(126,2,14) occ(15,3,13) occ(76,3,2) occ(79,3,11) occ(82,3,1) occ(87,3,3) occ(90,3,7) occ(108,3,6) occ(112,3,4) occ(116,3,8) occ(120,3,10) occ(124,3,12) occ(135,3,5) occ(11,4,10) occ(74,4,4) occ(75,4,12) occ(80,4,3) occ(89,4,1) occ(92,4,9) occ(93,4,5) occ(96,4,11) occ(128,4,13) occ(133,4,7) occ(134,4,8) occ(139,4,6) occ(9,5,8) occ(17,5,14) occ(38,5,13) occ(72,5,2) occ(78,5,1) occ(91,5,3) occ(95,5,7) occ(99,5,11) occ(106,5,5) occ(131,5,9) occ(132,5,10) occ(136,5,6) occ(137,5,4) occ(36,6,11) occ(73,6,13) occ(97,6,9) occ(98,6,10) occ(102,6,6) occ(130,6,12) occ(138,6,4) occ(141,6,5) occ(142,6,2) occ(7,7,7) occ(19,7,13) occ(23,7,9) occ(40,7,14) occ(70,7,1) occ(71,7,11) occ(100,7,8) occ(101,7,12) occ(104,7,4) occ(129,7,10) occ(149,7,2) occ(6,8,6) occ(10,8,10) occ(21,8,11) occ(25,8,7) occ(34,8,12) occ(48,8,13) occ(69,8,9) occ(103,8,14) occ(140,8,3) occ(143,8,4) occ(144,8,1) occ(4,9,4) occ(5,9,6) occ(8,9,8) occ(12,9,12) occ(18,9,7) occ(32,9,14) occ(42,9,13) occ(68,9,2) occ(107,9,11) occ(123,9,5) occ(127,9,9) occ(146,9,3) occ(147,9,1) occ(16,10,9) occ(20,10,5) occ(27,10,6) occ(46,10,12) occ(49,10,11) occ(50,10,14) occ(67,10,10) occ(105,10,13) occ(119,10,8) occ(125,10,7) occ(145,10,3) occ(14,11,11) occ(22,11,7) occ(29,11,4) occ(30,11,13) occ(44,11,14) occ(55,11,9) occ(65,11,8) occ(66,11,1) occ(109,11,12) occ(117,11,10) occ(121,11,6) occ(148,11,2) occ(24,12,9) occ(31,12,2) occ(37,12,5) occ(43,12,8) occ(47,12,12) occ(51,12,10) occ(52,12,13) occ(57,12,7) occ(62,12,4) occ(63,12,6) occ(28,13,12) occ(33,13,4) occ(41,13,6) occ(45,13,10) occ(53,13,8) occ(54,13,11) occ(58,13,7) occ(59,13,5) occ(64,13,2) occ(111,13,13) occ(115,13,9) occ(150,13,3) occ(26,14,10) occ(35,14,6) occ(39,14,4) occ(56,14,9) occ(60,14,5) occ(61,14,7) occ(113,14,11) occ(152,14,1)
Optimization: -151
Answer: 7
occ(1,12,11) occ(1,2,2) occ(1,5,12) occ(1,6,3) occ(1,11,3) occ(1,7,6) occ(2,10,2) occ(3,8,8) coverage(162) occ(17,1,14) occ(21,1,10) occ(98,1,11) occ(102,1,13) occ(106,1,9) occ(112,1,6) occ(118,1,5) occ(141,1,12) occ(144,1,4) occ(145,1,8) occ(154,1,7) occ(19,2,12) occ(96,2,9) occ(104,2,11) occ(110,2,8) occ(114,2,4) occ(120,2,3) occ(139,2,14) occ(142,2,6) occ(143,2,10) occ(149,2,7) occ(152,2,5) occ(15,3,13) occ(23,3,11) occ(32,3,14) occ(76,3,2) occ(88,3,4) occ(94,3,7) occ(100,3,12) occ(108,3,10) occ(116,3,6) occ(138,3,3) occ(146,3,5) occ(147,3,9) occ(156,3,8) occ(13,4,11) occ(34,4,12) occ(48,4,9) occ(72,4,1) occ(84,4,3) occ(90,4,6) occ(122,4,2) occ(137,4,13) occ(140,4,5) occ(150,4,4) occ(151,4,8) occ(25,5,10) occ(30,5,13) occ(67,5,7) occ(74,5,3) occ(78,5,1) occ(86,5,5) occ(92,5,8) occ(136,5,4) occ(148,5,6) occ(158,5,9) occ(11,6,12) occ(36,6,11) occ(46,6,10) occ(50,6,8) occ(65,6,5) occ(69,6,9) occ(70,6,2) occ(82,6,4) occ(85,6,13) occ(124,6,1) occ(135,6,14) occ(153,6,7) occ(9,7,10) occ(27,7,11) occ(28,7,14) occ(38,7,9) occ(66,7,3) occ(71,7,7) occ(80,7,2) occ(81,7,12) occ(134,7,5) occ(157,7,4) occ(160,7,8) occ(44,8,11) occ(52,8,9) occ(63,8,4) occ(68,8,1) occ(73,8,5) occ(79,8,10) occ(83,8,14) occ(87,8,12) occ(126,8,2) occ(132,8,3) occ(133,8,13) occ(155,8,6) occ(169,8,7) occ(7,9,9) occ(18,9,11) occ(26,9,13) occ(29,9,12) occ(40,9,10) occ(54,9,7) occ(61,9,6) occ(64,9,2) occ(77,9,8) occ(89,9,14) occ(130,9,1) occ(159,9,3) occ(167,9,5) occ(5,10,7) occ(16,10,9) occ(20,10,13) occ(42,10,12) occ(45,10,5) occ(58,10,4) occ(59,10,8) occ(75,10,6) occ(101,10,11) occ(128,10,3) occ(131,10,14) occ(161,10,1) occ(24,11,12) occ(31,11,11) occ(47,11,7) occ(55,11,5) occ(56,11,6) occ(62,11,1) occ(91,11,13) occ(99,11,9) occ(109,11,14) occ(113,11,10) occ(117,11,8) occ(165,11,4) occ(4,12,1) occ(14,12,8) occ(22,12,14) occ(33,12,9) occ(43,12,4) occ(49,12,5) occ(57,12,7) occ(60,12,3) occ(103,12,10) occ(111,12,12) occ(119,12,6) occ(129,12,13) occ(163,12,2) occ(6,13,3) occ(10,13,7) occ(37,13,6) occ(41,13,2) occ(53,13,4) occ(93,13,14) occ(97,13,10) occ(107,13,13) occ(115,13,9) occ(121,13,8) occ(125,13,12) occ(8,14,5) occ(12,14,9) occ(35,14,8) occ(39,14,4) occ(51,14,6) occ(95,14,12) occ(105,14,11) occ(123,14,10) occ(127,14,14)
Optimization: -162
Answer: 8
occ(1,12,11) occ(1,2,2) occ(1,5,12) occ(1,6,3) occ(1,11,3) occ(1,7,6) occ(2,10,2) occ(3,8,8) coverage(170) occ(17,1,14) occ(21,1,10) occ(98,1,11) occ(102,1,13) occ(106,1,9) occ(112,1,6) occ(118,1,5) occ(141,1,12) occ(144,1,4) occ(145,1,8) occ(154,1,7) occ(19,2,12) occ(96,2,9) occ(104,2,11) occ(110,2,8) occ(114,2,4) occ(120,2,3) occ(139,2,14) occ(142,2,6) occ(143,2,10) occ(149,2,7) occ(152,2,5) occ(15,3,13) occ(23,3,11) occ(32,3,14) occ(76,3,2) occ(88,3,4) occ(94,3,7) occ(100,3,12) occ(108,3,10) occ(116,3,6) occ(138,3,3) occ(146,3,5) occ(147,3,9) occ(156,3,8) occ(13,4,11) occ(34,4,12) occ(72,4,1) occ(84,4,3) occ(90,4,6) occ(122,4,2) occ(137,4,13) occ(140,4,5) occ(150,4,4) occ(151,4,8) occ(164,4,9) occ(168,4,7) occ(25,5,10) occ(30,5,13) occ(67,5,7) occ(74,5,3) occ(78,5,1) occ(86,5,5) occ(92,5,8) occ(136,5,4) occ(148,5,6) occ(158,5,9) occ(11,6,12) occ(36,6,11) occ(65,6,5) occ(69,6,9) occ(70,6,2) occ(82,6,4) occ(85,6,13) occ(124,6,1) occ(135,6,14) occ(153,6,7) occ(162,6,10) occ(166,6,8) occ(9,7,10) occ(27,7,11) occ(28,7,14) occ(38,7,9) occ(66,7,3) occ(71,7,7) occ(80,7,2) occ(81,7,12) occ(134,7,5) occ(157,7,4) occ(160,7,8) occ(44,8,11) occ(52,8,9) occ(63,8,4) occ(68,8,1) occ(73,8,5) occ(79,8,10) occ(83,8,14) occ(87,8,12) occ(126,8,2) occ(132,8,3) occ(133,8,13) occ(155,8,6) occ(169,8,7) occ(7,9,9) occ(26,9,13) occ(29,9,12) occ(40,9,10) occ(50,9,11) occ(54,9,7) occ(61,9,6) occ(64,9,2) occ(77,9,8) occ(89,9,14) occ(130,9,1) occ(159,9,3) occ(167,9,5) occ(5,10,7) occ(16,10,9) occ(42,10,12) occ(45,10,5) occ(46,10,10) occ(58,10,4) occ(59,10,8) occ(75,10,6) occ(101,10,11) occ(105,10,13) occ(128,10,3) occ(131,10,14) occ(161,10,1) occ(24,11,14) occ(31,11,11) occ(47,11,7) occ(48,11,12) occ(55,11,5) occ(56,11,6) occ(62,11,1) occ(91,11,13) occ(99,11,9) occ(113,11,10) occ(117,11,8) occ(165,11,4) occ(4,12,1) occ(14,12,8) occ(18,12,10) occ(33,12,9) occ(43,12,4) occ(49,12,5) occ(57,12,7) occ(60,12,3) occ(103,12,12) occ(107,12,14) occ(119,12,6) occ(129,12,13) occ(163,12,2) occ(6,13,3) occ(10,13,7) occ(22,13,13) occ(37,13,6) occ(41,13,2) occ(53,13,4) occ(93,13,14) occ(97,13,10) occ(111,13,11) occ(115,13,9) occ(121,13,8) occ(125,13,12) occ(8,14,5) occ(12,14,9) occ(20,14,11) occ(35,14,8) occ(39,14,4) occ(51,14,6) occ(95,14,12) occ(109,14,13) occ(123,14,10) occ(127,14,14)
Optimization: -170
Answer: 9
occ(1,12,11) occ(1,2,2) occ(1,5,12) occ(1,6,3) occ(1,11,3) occ(1,7,6) occ(2,10,2) occ(3,8,8) coverage(171) occ(17,1,14) occ(21,1,10) occ(98,1,11) occ(102,1,13) occ(106,1,9) occ(112,1,6) occ(118,1,5) occ(141,1,12) occ(144,1,4) occ(145,1,8) occ(154,1,7) occ(19,2,12) occ(96,2,9) occ(104,2,11) occ(110,2,8) occ(114,2,4) occ(120,2,3) occ(139,2,14) occ(142,2,6) occ(143,2,10) occ(149,2,7) occ(152,2,5) occ(15,3,13) occ(23,3,11) occ(32,3,14) occ(76,3,2) occ(88,3,4) occ(94,3,7) occ(100,3,12) occ(108,3,10) occ(116,3,6) occ(138,3,3) occ(146,3,5) occ(147,3,9) occ(156,3,8) occ(13,4,11) occ(34,4,12) occ(72,4,1) occ(84,4,3) occ(90,4,6) occ(122,4,2) occ(137,4,13) occ(140,4,5) occ(150,4,4) occ(151,4,8) occ(164,4,9) occ(168,4,7) occ(25,5,10) occ(30,5,13) occ(67,5,7) occ(74,5,3) occ(78,5,1) occ(86,5,5) occ(92,5,8) occ(136,5,4) occ(148,5,6) occ(158,5,9) occ(11,6,12) occ(36,6,11) occ(65,6,5) occ(69,6,9) occ(70,6,2) occ(82,6,4) occ(85,6,13) occ(124,6,1) occ(135,6,14) occ(153,6,7) occ(162,6,10) occ(166,6,8) occ(170,6,6) occ(9,7,10) occ(27,7,11) occ(28,7,14) occ(38,7,9) occ(66,7,3) occ(71,7,7) occ(80,7,2) occ(81,7,12) occ(134,7,5) occ(157,7,4) occ(160,7,8) occ(44,8,11) occ(52,8,9) occ(63,8,4) occ(68,8,1) occ(73,8,5) occ(79,8,10) occ(83,8,14) occ(87,8,12) occ(126,8,2) occ(132,8,3) occ(133,8,13) occ(155,8,6) occ(169,8,7) occ(7,9,9) occ(26,9,13) occ(29,9,12) occ(40,9,10) occ(50,9,11) occ(54,9,7) occ(61,9,6) occ(64,9,2) occ(77,9,8) occ(89,9,14) occ(130,9,1) occ(159,9,3) occ(167,9,5) occ(5,10,7) occ(16,10,9) occ(42,10,12) occ(45,10,5) occ(46,10,10) occ(58,10,4) occ(59,10,8) occ(75,10,6) occ(101,10,11) occ(105,10,13) occ(128,10,3) occ(131,10,14) occ(161,10,1) occ(24,11,14) occ(31,11,11) occ(47,11,7) occ(48,11,12) occ(55,11,5) occ(56,11,6) occ(62,11,1) occ(91,11,13) occ(99,11,9) occ(113,11,10) occ(117,11,8) occ(165,11,4) occ(4,12,1) occ(14,12,8) occ(18,12,10) occ(33,12,9) occ(43,12,4) occ(49,12,5) occ(57,12,7) occ(60,12,3) occ(103,12,12) occ(107,12,14) occ(119,12,6) occ(129,12,13) occ(163,12,2) occ(6,13,3) occ(10,13,7) occ(22,13,13) occ(37,13,6) occ(41,13,2) occ(53,13,4) occ(93,13,14) occ(97,13,10) occ(111,13,11) occ(115,13,9) occ(121,13,8) occ(125,13,12) occ(8,14,5) occ(12,14,9) occ(20,14,11) occ(35,14,8) occ(39,14,4) occ(51,14,6) occ(95,14,12) occ(109,14,13) occ(123,14,10) occ(127,14,14)
Optimization: -171
Answer: 10
occ(1,12,11) occ(1,2,2) occ(1,5,12) occ(1,6,3) occ(1,11,3) occ(1,7,6) occ(2,10,2) occ(3,8,8) coverage(172) occ(17,1,14) occ(21,1,10) occ(98,1,11) occ(102,1,13) occ(106,1,9) occ(112,1,6) occ(118,1,5) occ(141,1,12) occ(144,1,4) occ(145,1,8) occ(154,1,7) occ(19,2,12) occ(96,2,9) occ(104,2,11) occ(110,2,8) occ(114,2,4) occ(120,2,3) occ(139,2,14) occ(142,2,6) occ(143,2,10) occ(149,2,7) occ(152,2,5) occ(15,3,13) occ(23,3,11) occ(32,3,14) occ(76,3,2) occ(88,3,4) occ(94,3,7) occ(100,3,12) occ(108,3,10) occ(116,3,6) occ(138,3,3) occ(146,3,5) occ(147,3,9) occ(156,3,8) occ(13,4,11) occ(34,4,12) occ(72,4,1) occ(84,4,3) occ(90,4,6) occ(122,4,2) occ(137,4,13) occ(140,4,5) occ(150,4,4) occ(151,4,8) occ(164,4,9) occ(168,4,7) occ(25,5,10) occ(30,5,13) occ(67,5,7) occ(74,5,3) occ(78,5,1) occ(86,5,5) occ(92,5,8) occ(136,5,4) occ(148,5,6) occ(158,5,9) occ(11,6,12) occ(36,6,11) occ(65,6,5) occ(69,6,9) occ(70,6,2) occ(82,6,4) occ(85,6,13) occ(124,6,1) occ(135,6,14) occ(153,6,7) occ(162,6,10) occ(166,6,8) occ(170,6,6) occ(9,7,10) occ(27,7,11) occ(28,7,14) occ(38,7,9) occ(66,7,3) occ(71,7,7) occ(80,7,2) occ(81,7,12) occ(134,7,5) occ(157,7,4) occ(160,7,8) occ(44,8,11) occ(52,8,9) occ(63,8,4) occ(68,8,1) occ(73,8,5) occ(79,8,10) occ(83,8,14) occ(87,8,12) occ(126,8,2) occ(132,8,3) occ(133,8,13) occ(155,8,6) occ(7,9,9) occ(26,9,13) occ(29,9,12) occ(40,9,10) occ(50,9,11) occ(54,9,7) occ(61,9,6) occ(64,9,2) occ(77,9,8) occ(89,9,14) occ(130,9,1) occ(159,9,3) occ(5,10,7) occ(16,10,9) occ(42,10,12) occ(45,10,5) occ(46,10,10) occ(58,10,4) occ(59,10,8) occ(75,10,6) occ(101,10,11) occ(105,10,13) occ(128,10,3) occ(131,10,14) occ(161,10,1) occ(24,11,14) occ(31,11,11) occ(47,11,7) occ(48,11,12) occ(55,11,5) occ(56,11,6) occ(62,11,1) occ(91,11,13) occ(99,11,9) occ(113,11,10) occ(117,11,8) occ(165,11,4) occ(4,12,1) occ(14,12,8) occ(18,12,10) occ(33,12,9) occ(43,12,4) occ(49,12,5) occ(57,12,7) occ(60,12,3) occ(103,12,12) occ(107,12,14) occ(119,12,6) occ(129,12,13) occ(163,12,2) occ(6,13,3) occ(10,13,7) occ(22,13,13) occ(37,13,6) occ(41,13,2) occ(53,13,4) occ(93,13,14) occ(97,13,10) occ(111,13,11) occ(115,13,9) occ(121,13,8) occ(125,13,12) occ(167,13,5) occ(171,13,1) occ(8,14,5) occ(12,14,9) occ(20,14,11) occ(35,14,8) occ(39,14,4) occ(51,14,6) occ(95,14,12) occ(109,14,13) occ(123,14,10) occ(127,14,14) occ(169,14,3)
Optimization: -172
Answer: 11
occ(1,12,11) occ(1,2,2) occ(1,5,12) occ(1,6,3) occ(1,11,3) occ(1,7,6) occ(2,10,2) occ(3,8,8) coverage(175) occ(17,1,14) occ(21,1,10) occ(98,1,11) occ(102,1,13) occ(106,1,9) occ(112,1,6) occ(118,1,5) occ(141,1,12) occ(144,1,4) occ(145,1,8) occ(154,1,7) occ(19,2,12) occ(96,2,9) occ(104,2,11) occ(110,2,8) occ(114,2,4) occ(120,2,3) occ(139,2,14) occ(142,2,6) occ(143,2,10) occ(149,2,7) occ(152,2,5) occ(15,3,13) occ(23,3,11) occ(32,3,14) occ(76,3,2) occ(88,3,4) occ(94,3,7) occ(100,3,12) occ(108,3,10) occ(116,3,6) occ(138,3,3) occ(146,3,5) occ(147,3,9) occ(156,3,8) occ(13,4,11) occ(34,4,12) occ(72,4,1) occ(84,4,3) occ(90,4,6) occ(122,4,2) occ(137,4,13) occ(140,4,5) occ(150,4,4) occ(151,4,8) occ(164,4,9) occ(168,4,7) occ(25,5,10) occ(30,5,13) occ(67,5,7) occ(74,5,3) occ(78,5,1) occ(86,5,5) occ(92,5,8) occ(136,5,4) occ(148,5,6) occ(158,5,9) occ(11,6,12) occ(36,6,11) occ(65,6,5) occ(69,6,9) occ(70,6,2) occ(82,6,4) occ(85,6,13) occ(124,6,1) occ(135,6,14) occ(153,6,7) occ(162,6,10) occ(166,6,8) occ(170,6,6) occ(9,7,10) occ(27,7,11) occ(28,7,14) occ(38,7,9) occ(66,7,3) occ(71,7,7) occ(80,7,2) occ(81,7,12) occ(134,7,5) occ(157,7,4) occ(160,7,8) occ(44,8,11) occ(52,8,9) occ(63,8,4) occ(68,8,1) occ(73,8,5) occ(79,8,10) occ(83,8,14) occ(87,8,12) occ(126,8,2) occ(132,8,3) occ(133,8,13) occ(155,8,6) occ(172,8,7) occ(7,9,9) occ(26,9,13) occ(29,9,12) occ(40,9,10) occ(50,9,11) occ(54,9,7) occ(61,9,6) occ(64,9,2) occ(77,9,8) occ(89,9,14) occ(130,9,1) occ(159,9,3) occ(174,9,5) occ(5,10,7) occ(16,10,9) occ(42,10,12) occ(45,10,5) occ(46,10,10) occ(58,10,4) occ(59,10,8) occ(75,10,6) occ(101,10,11) occ(105,10,13) occ(128,10,3) occ(131,10,14) occ(161,10,1) occ(24,11,14) occ(31,11,11) occ(47,11,7) occ(48,11,12) occ(55,11,5) occ(56,11,6) occ(62,11,1) occ(91,11,13) occ(99,11,9) occ(113,11,10) occ(117,11,8) occ(165,11,4) occ(173,11,2) occ(4,12,1) occ(14,12,8) occ(18,12,10) occ(33,12,9) occ(43,12,4) occ(49,12,5) occ(57,12,7) occ(60,12,3) occ(103,12,12) occ(107,12,14) occ(119,12,6) occ(129,12,13) occ(163,12,2) occ(6,13,3) occ(10,13,7) occ(22,13,13) occ(37,13,6) occ(41,13,2) occ(53,13,4) occ(93,13,14) occ(97,13,10) occ(111,13,11) occ(115,13,9) occ(121,13,8) occ(125,13,12) occ(167,13,5) occ(171,13,1) occ(8,14,5) occ(12,14,9) occ(20,14,11) occ(35,14,8) occ(39,14,4) occ(51,14,6) occ(95,14,12) occ(109,14,13) occ(123,14,10) occ(127,14,14) occ(169,14,3)
Optimization: -175
Answer: 12
occ(1,12,11) occ(1,2,2) occ(1,5,12) occ(1,6,3) occ(1,11,3) occ(1,7,6) occ(2,10,2) occ(3,8,8) coverage(176) occ(17,1,14) occ(21,1,10) occ(98,1,11) occ(102,1,13) occ(106,1,9) occ(112,1,6) occ(118,1,5) occ(141,1,12) occ(144,1,4) occ(145,1,8) occ(154,1,7) occ(19,2,12) occ(96,2,9) occ(104,2,11) occ(110,2,8) occ(114,2,4) occ(120,2,3) occ(139,2,14) occ(142,2,6) occ(143,2,10) occ(149,2,7) occ(152,2,5) occ(15,3,13) occ(23,3,11) occ(32,3,14) occ(76,3,2) occ(88,3,4) occ(94,3,7) occ(100,3,12) occ(108,3,10) occ(116,3,6) occ(138,3,3) occ(146,3,5) occ(147,3,9) occ(156,3,8) occ(13,4,11) occ(34,4,12) occ(72,4,1) occ(84,4,3) occ(90,4,6) occ(122,4,2) occ(137,4,13) occ(140,4,5) occ(150,4,4) occ(151,4,8) occ(164,4,9) occ(168,4,7) occ(25,5,10) occ(30,5,13) occ(64,5,2) occ(67,5,7) occ(74,5,3) occ(78,5,1) occ(86,5,5) occ(92,5,8) occ(136,5,4) occ(148,5,6) occ(158,5,9) occ(11,6,12) occ(36,6,11) occ(65,6,5) occ(69,6,9) occ(70,6,2) occ(82,6,4) occ(85,6,13) occ(124,6,1) occ(135,6,14) occ(153,6,7) occ(162,6,10) occ(166,6,8) occ(170,6,6) occ(9,7,10) occ(27,7,11) occ(28,7,14) occ(38,7,9) occ(62,7,1) occ(66,7,3) occ(71,7,7) occ(80,7,2) occ(81,7,12) occ(134,7,5) occ(157,7,4) occ(160,7,8) occ(44,8,11) occ(52,8,9) occ(63,8,4) occ(68,8,1) occ(73,8,5) occ(79,8,10) occ(83,8,14) occ(87,8,12) occ(126,8,2) occ(132,8,3) occ(133,8,13) occ(155,8,6) occ(172,8,7) occ(7,9,9) occ(26,9,13) occ(29,9,12) occ(40,9,10) occ(50,9,11) occ(54,9,7) occ(60,9,2) occ(61,9,6) occ(77,9,8) occ(89,9,14) occ(130,9,1) occ(159,9,3) occ(174,9,5) occ(5,10,7) occ(16,10,9) occ(42,10,12) occ(45,10,5) occ(46,10,10) occ(58,10,4) occ(59,10,8) occ(75,10,6) occ(101,10,11) occ(105,10,13) occ(128,10,3) occ(131,10,14) occ(161,10,1) occ(24,11,14) occ(31,11,11) occ(47,11,7) occ(48,11,12) occ(55,11,5) occ(56,11,6) occ(91,11,13) occ(99,11,9) occ(113,11,10) occ(117,11,8) occ(165,11,4) occ(4,12,1) occ(14,12,8) occ(18,12,10) occ(33,12,9) occ(43,12,4) occ(49,12,5) occ(57,12,7) occ(103,12,12) occ(107,12,14) occ(119,12,6) occ(129,12,13) occ(163,12,2) occ(173,12,3) occ(6,13,3) occ(10,13,7) occ(22,13,13) occ(37,13,6) occ(41,13,2) occ(53,13,4) occ(93,13,14) occ(97,13,10) occ(111,13,11) occ(115,13,9) occ(121,13,8) occ(125,13,12) occ(167,13,5) occ(171,13,1) occ(8,14,5) occ(12,14,9) occ(20,14,11) occ(35,14,8) occ(39,14,4) occ(51,14,6) occ(95,14,12) occ(109,14,13) occ(123,14,10) occ(127,14,14) occ(169,14,3) occ(175,14,2)
Optimization: -176
Answer: 13
occ(1,12,11) occ(1,2,2) occ(1,5,12) occ(1,6,3) occ(1,11,3) occ(1,7,6) occ(2,10,2) occ(3,8,8) coverage(179) occ(15,1,9) occ(16,1,2) occ(19,1,13) occ(63,1,5) occ(67,1,3) occ(73,1,6) occ(80,1,12) occ(84,1,14) occ(88,1,10) occ(125,1,8) occ(178,1,7) occ(13,2,7) occ(17,2,11) occ(61,2,3) occ(71,2,4) occ(78,2,14) occ(85,2,5) occ(86,2,12) occ(90,2,8) occ(94,2,6) occ(127,2,10) occ(144,2,13) occ(9,3,10) occ(14,3,3) occ(18,3,1) occ(21,3,14) occ(65,3,4) occ(69,3,2) occ(75,3,5) occ(82,3,13) occ(83,3,7) occ(96,3,8) occ(123,3,9) occ(129,3,12) occ(146,3,11) occ(176,3,6) occ(11,4,8) occ(12,4,1) occ(20,4,3) occ(23,4,12) occ(36,4,5) occ(59,4,2) occ(68,4,9) occ(76,4,13) occ(87,4,4) occ(92,4,7) occ(98,4,6) occ(121,4,11) occ(142,4,14) occ(7,5,9) occ(38,5,3) occ(77,5,6) occ(81,5,8) occ(89,5,2) occ(100,5,4) occ(131,5,13) occ(148,5,10) occ(170,5,11) occ(174,5,7) occ(5,6,7) occ(10,6,2) occ(22,6,4) occ(25,6,11) occ(34,6,6) occ(44,6,5) occ(57,6,1) occ(66,6,8) occ(70,6,10) occ(74,6,14) occ(119,6,12) occ(140,6,13) occ(172,6,9) occ(6,7,3) occ(27,7,9) occ(32,7,8) occ(40,7,4) occ(72,7,12) occ(79,7,7) occ(91,7,1) occ(102,7,5) occ(133,7,14) occ(150,7,11) occ(158,7,13) occ(168,7,10) occ(8,8,1) occ(24,8,5) occ(30,8,10) occ(42,8,6) occ(46,8,4) occ(55,8,2) occ(64,8,9) occ(93,8,3) occ(117,8,13) occ(128,8,7) occ(138,8,14) occ(156,8,11) occ(166,8,12) occ(4,9,4) occ(26,9,7) occ(29,9,8) occ(47,9,9) occ(48,9,2) occ(51,9,5) occ(60,9,12) occ(95,9,1) occ(104,9,6) occ(134,9,11) occ(135,9,13) occ(152,9,10) occ(159,9,3) occ(160,9,14) occ(28,10,9) occ(49,10,7) occ(50,10,4) occ(53,10,3) occ(62,10,10) occ(115,10,14) occ(126,10,6) occ(130,10,8) occ(136,10,13) occ(154,10,12) occ(157,10,5) occ(161,10,1) occ(164,10,11) occ(31,11,9) occ(45,11,8) occ(52,11,6) occ(58,11,11) occ(97,11,2) occ(106,11,5) occ(113,11,12) occ(118,11,1) occ(124,11,4) occ(132,11,10) occ(137,11,14) occ(155,11,7) occ(162,11,13) occ(35,12,10) occ(43,12,6) occ(54,12,8) occ(103,12,4) occ(108,12,7) occ(120,12,3) occ(139,12,12) occ(145,12,13) occ(153,12,9) occ(163,12,2) occ(169,12,1) occ(177,12,5) occ(33,13,8) occ(39,13,9) occ(56,13,10) occ(99,13,1) occ(107,13,7) occ(111,13,11) occ(112,13,6) occ(116,13,2) occ(122,13,5) occ(141,13,14) occ(149,13,12) occ(167,13,3) occ(173,13,4) occ(37,14,11) occ(41,14,7) occ(101,14,3) occ(105,14,5) occ(109,14,9) occ(110,14,8) occ(114,14,4) occ(143,14,12) occ(147,14,14) occ(151,14,10) occ(165,14,1) occ(171,14,2) occ(175,14,6)
Optimization: -179
Answer: 14
occ(1,12,11) occ(1,2,2) occ(1,5,12) occ(1,6,3) occ(1,11,3) occ(1,7,6) occ(2,10,2) occ(3,8,8) coverage(180) occ(23,1,1) occ(43,1,11) occ(47,1,13) occ(53,1,14) occ(57,1,10) occ(74,1,5) occ(78,1,3) occ(82,1,7) occ(137,1,8) occ(149,1,2) occ(176,1,6) occ(25,2,3) occ(37,2,7) occ(48,2,13) occ(49,2,11) occ(55,2,12) occ(59,2,8) occ(80,2,5) occ(84,2,9) occ(139,2,10) occ(143,2,6) occ(147,2,4) occ(21,3,2) occ(27,3,1) occ(41,3,10) occ(45,3,12) occ(46,3,11) occ(51,3,13) occ(72,3,6) occ(76,3,4) occ(108,3,14) occ(135,3,9) occ(141,3,8) occ(151,3,3) occ(174,3,7) occ(178,3,5) occ(29,4,3) occ(35,4,6) occ(39,4,8) occ(50,4,14) occ(61,4,7) occ(69,4,13) occ(86,4,10) occ(92,4,11) occ(110,4,12) occ(145,4,5) occ(170,4,4) occ(15,5,3) occ(19,5,1) occ(31,5,5) occ(44,5,10) occ(66,5,11) occ(70,5,7) occ(90,5,9) occ(106,5,13) occ(112,5,14) occ(113,5,2) occ(133,5,8) occ(153,5,4) occ(172,5,6) occ(11,6,6) occ(33,6,7) occ(52,6,13) occ(63,6,8) occ(67,6,12) occ(68,6,9) occ(71,6,14) occ(88,6,11) occ(94,6,10) occ(111,6,4) occ(155,6,2) occ(160,6,1) occ(168,6,5) occ(9,7,8) occ(13,7,4) occ(17,7,2) occ(42,7,11) occ(64,7,12) occ(65,7,10) occ(79,7,7) occ(83,7,5) occ(104,7,14) occ(114,7,13) occ(115,7,1) occ(131,7,9) occ(162,7,3) occ(14,8,4) occ(54,8,14) occ(62,8,10) occ(73,8,13) occ(77,8,9) occ(85,8,7) occ(96,8,11) occ(102,8,12) occ(109,8,5) occ(117,8,3) occ(157,8,1) occ(158,8,2) occ(166,8,6) occ(7,9,7) occ(10,9,1) occ(16,9,2) occ(40,9,10) occ(60,9,12) occ(75,9,11) occ(81,9,6) occ(87,9,9) occ(98,9,13) occ(116,9,14) occ(119,9,5) occ(129,9,8) occ(159,9,3) occ(164,9,4) occ(5,10,9) occ(12,10,3) occ(34,10,4) occ(38,10,8) occ(56,10,13) occ(100,10,11) occ(107,10,6) occ(121,10,7) occ(126,10,12) occ(156,10,1) occ(169,10,5) occ(8,11,2) occ(18,11,1) occ(26,11,5) occ(36,11,6) occ(58,11,11) occ(89,11,10) occ(97,11,12) occ(105,11,8) occ(118,11,13) occ(124,11,14) occ(127,11,9) occ(161,11,4) occ(171,11,7) occ(4,12,3) occ(28,12,7) occ(32,12,5) occ(95,12,14) occ(122,12,12) occ(123,12,8) occ(128,12,13) occ(134,12,10) occ(142,12,6) occ(148,12,1) occ(154,12,2) occ(167,12,4) occ(177,12,9) occ(6,13,1) occ(20,13,2) occ(24,13,6) occ(91,13,11) occ(99,13,13) occ(103,13,9) occ(120,13,14) occ(125,13,10) occ(132,13,12) occ(138,13,7) occ(144,13,4) occ(150,13,3) occ(163,13,5) occ(173,13,8) occ(22,14,4) occ(30,14,6) occ(93,14,13) occ(101,14,11) occ(130,14,14) occ(136,14,9) occ(140,14,5) occ(146,14,2) occ(152,14,1) occ(165,14,3) occ(175,14,10) occ(179,14,8)
Optimization: -180
Answer: 15
occ(1,12,11) occ(1,2,2) occ(1,5,12) occ(1,6,3) occ(1,11,3) occ(1,7,6) occ(2,10,2) occ(3,8,8) coverage(181) occ(23,1,1) occ(43,1,11) occ(47,1,13) occ(53,1,14) occ(57,1,10) occ(74,1,5) occ(78,1,3) occ(82,1,7) occ(137,1,8) occ(149,1,2) occ(176,1,6) occ(180,1,4) occ(25,2,3) occ(37,2,7) occ(48,2,13) occ(49,2,11) occ(55,2,12) occ(59,2,8) occ(80,2,5) occ(84,2,9) occ(139,2,10) occ(143,2,6) occ(147,2,4) occ(21,3,2) occ(27,3,1) occ(41,3,10) occ(45,3,12) occ(46,3,11) occ(51,3,13) occ(72,3,6) occ(76,3,4) occ(108,3,14) occ(135,3,9) occ(141,3,8) occ(151,3,3) occ(174,3,7) occ(178,3,5) occ(29,4,3) occ(35,4,6) occ(39,4,8) occ(50,4,14) occ(61,4,7) occ(69,4,13) occ(86,4,10) occ(92,4,11) occ(110,4,12) occ(145,4,5) occ(170,4,4) occ(15,5,3) occ(19,5,1) occ(31,5,5) occ(44,5,10) occ(66,5,11) occ(70,5,7) occ(90,5,9) occ(106,5,13) occ(112,5,14) occ(113,5,2) occ(133,5,8) occ(153,5,4) occ(172,5,6) occ(11,6,6) occ(33,6,7) occ(52,6,13) occ(63,6,8) occ(67,6,12) occ(68,6,9) occ(71,6,14) occ(88,6,11) occ(94,6,10) occ(111,6,4) occ(155,6,2) occ(160,6,1) occ(168,6,5) occ(9,7,8) occ(13,7,4) occ(17,7,2) occ(42,7,11) occ(64,7,12) occ(65,7,10) occ(79,7,7) occ(83,7,5) occ(104,7,14) occ(114,7,13) occ(115,7,1) occ(131,7,9) occ(162,7,3) occ(14,8,4) occ(54,8,14) occ(62,8,10) occ(73,8,13) occ(77,8,9) occ(85,8,7) occ(96,8,11) occ(102,8,12) occ(109,8,5) occ(117,8,3) occ(157,8,1) occ(158,8,2) occ(166,8,6) occ(7,9,7) occ(10,9,1) occ(16,9,2) occ(40,9,10) occ(60,9,12) occ(75,9,11) occ(81,9,6) occ(87,9,9) occ(98,9,13) occ(116,9,14) occ(119,9,5) occ(129,9,8) occ(159,9,3) occ(164,9,4) occ(5,10,9) occ(12,10,3) occ(34,10,4) occ(38,10,8) occ(56,10,13) occ(100,10,11) occ(107,10,6) occ(121,10,7) occ(126,10,12) occ(156,10,1) occ(169,10,5) occ(8,11,2) occ(18,11,1) occ(26,11,5) occ(36,11,6) occ(58,11,11) occ(89,11,10) occ(97,11,12) occ(105,11,8) occ(118,11,13) occ(124,11,14) occ(127,11,9) occ(161,11,4) occ(171,11,7) occ(4,12,3) occ(28,12,7) occ(32,12,5) occ(95,12,14) occ(122,12,12) occ(123,12,8) occ(128,12,13) occ(134,12,10) occ(142,12,6) occ(148,12,1) occ(154,12,2) occ(167,12,4) occ(177,12,9) occ(6,13,1) occ(20,13,2) occ(24,13,6) occ(91,13,11) occ(99,13,13) occ(103,13,9) occ(120,13,14) occ(125,13,10) occ(132,13,12) occ(138,13,7) occ(144,13,4) occ(150,13,3) occ(163,13,5) occ(173,13,8) occ(22,14,4) occ(30,14,6) occ(93,14,13) occ(101,14,11) occ(130,14,14) occ(136,14,9) occ(140,14,5) occ(146,14,2) occ(152,14,1) occ(165,14,3) occ(175,14,10) occ(179,14,8)
Optimization: -181
Answer: 16
occ(1,12,11) occ(1,2,2) occ(1,5,12) occ(1,6,3) occ(1,11,3) occ(1,7,6) occ(2,10,2) occ(3,8,8) coverage(182) occ(23,1,1) occ(43,1,11) occ(47,1,13) occ(53,1,14) occ(57,1,10) occ(74,1,5) occ(78,1,3) occ(82,1,7) occ(137,1,8) occ(149,1,2) occ(176,1,6) occ(180,1,4) occ(25,2,3) occ(37,2,7) occ(48,2,13) occ(49,2,11) occ(55,2,12) occ(59,2,8) occ(80,2,5) occ(84,2,9) occ(139,2,10) occ(143,2,6) occ(147,2,4) occ(21,3,2) occ(27,3,1) occ(41,3,10) occ(45,3,12) occ(46,3,11) occ(51,3,13) occ(72,3,6) occ(76,3,4) occ(108,3,14) occ(135,3,9) occ(141,3,8) occ(151,3,3) occ(174,3,7) occ(178,3,5) occ(29,4,3) occ(35,4,6) occ(39,4,8) occ(50,4,14) occ(61,4,7) occ(69,4,13) occ(86,4,10) occ(92,4,11) occ(110,4,12) occ(145,4,5) occ(170,4,4) occ(15,5,3) occ(19,5,1) occ(31,5,5) occ(44,5,10) occ(66,5,11) occ(70,5,7) occ(90,5,9) occ(106,5,13) occ(112,5,14) occ(113,5,2) occ(133,5,8) occ(153,5,4) occ(172,5,6) occ(11,6,6) occ(33,6,7) occ(52,6,13) occ(63,6,8) occ(67,6,12) occ(68,6,9) occ(71,6,14) occ(88,6,11) occ(94,6,10) occ(111,6,4) occ(155,6,2) occ(160,6,1) occ(168,6,5) occ(9,7,8) occ(13,7,4) occ(17,7,2) occ(42,7,11) occ(64,7,12) occ(65,7,10) occ(79,7,7) occ(83,7,5) occ(104,7,14) occ(114,7,13) occ(115,7,1) occ(131,7,9) occ(162,7,3) occ(22,8,4) occ(54,8,14) occ(62,8,10) occ(73,8,13) occ(77,8,9) occ(85,8,7) occ(96,8,11) occ(102,8,12) occ(109,8,5) occ(117,8,3) occ(157,8,1) occ(158,8,2) occ(166,8,6) occ(7,9,7) occ(24,9,2) occ(30,9,1) occ(40,9,10) occ(60,9,12) occ(75,9,11) occ(81,9,6) occ(87,9,9) occ(98,9,13) occ(116,9,14) occ(119,9,5) occ(129,9,8) occ(159,9,3) occ(164,9,4) occ(5,10,9) occ(20,10,5) occ(28,10,3) occ(34,10,4) occ(38,10,8) occ(56,10,13) occ(100,10,11) occ(107,10,6) occ(121,10,7) occ(126,10,12) occ(156,10,1) occ(18,11,7) occ(26,11,1) occ(32,11,2) occ(36,11,6) occ(58,11,11) occ(89,11,10) occ(97,11,12) occ(105,11,8) occ(118,11,13) occ(124,11,14) occ(127,11,9) occ(142,11,5) occ(161,11,4) occ(4,12,3) occ(10,12,4) occ(16,12,5) occ(95,12,14) occ(122,12,12) occ(123,12,8) occ(128,12,13) occ(136,12,9) occ(148,12,1) occ(154,12,2) occ(165,12,7) occ(171,12,10) occ(179,12,6) occ(6,13,1) occ(12,13,2) occ(91,13,11) occ(99,13,13) occ(103,13,9) occ(120,13,14) occ(125,13,10) occ(132,13,12) occ(140,13,6) occ(144,13,4) occ(150,13,3) occ(163,13,5) occ(169,13,8) occ(175,13,7) occ(8,14,3) occ(14,14,4) occ(93,14,13) occ(101,14,11) occ(130,14,14) occ(134,14,10) occ(138,14,8) occ(146,14,2) occ(152,14,1) occ(167,14,6) occ(173,14,9) occ(177,14,5) occ(181,14,7)
Optimization: -182
Answer: 17
occ(1,12,11) occ(1,2,2) occ(1,5,12) occ(1,6,3) occ(1,11,3) occ(1,7,6) occ(2,10,2) occ(3,8,8) coverage(183) occ(32,1,4) occ(36,1,2) occ(61,1,6) occ(69,1,10) occ(73,1,12) occ(111,1,13) occ(115,1,9) occ(119,1,5) occ(123,1,1) occ(167,1,11) occ(171,1,7) occ(175,1,3) occ(176,1,8) occ(30,2,6) occ(47,2,12) occ(63,2,4) occ(67,2,8) occ(113,2,11) occ(117,2,7) occ(121,2,3) occ(165,2,13) occ(169,2,9) occ(173,2,5) occ(177,2,1) occ(178,2,10) occ(28,3,4) occ(34,3,3) occ(38,3,1) occ(49,3,10) occ(59,3,5) occ(65,3,6) occ(71,3,11) occ(75,3,13) occ(100,3,8) occ(109,3,14) occ(125,3,2) occ(143,3,7) occ(161,3,12) occ(174,3,9) occ(24,4,1) occ(45,4,13) occ(51,4,8) occ(98,4,6) occ(102,4,10) occ(107,4,12) occ(127,4,4) occ(137,4,3) occ(141,4,5) occ(149,4,11) occ(163,4,14) occ(172,4,7) occ(179,4,2) occ(180,4,9) occ(26,5,3) occ(40,5,2) occ(57,5,6) occ(77,5,14) occ(96,5,4) occ(105,5,10) occ(135,5,1) occ(145,5,8) occ(151,5,13) occ(159,5,11) occ(182,5,7) occ(18,6,6) occ(22,6,2) occ(43,6,14) occ(53,6,9) occ(79,6,12) occ(104,6,11) occ(124,6,7) occ(129,6,5) occ(139,6,4) occ(147,6,10) occ(157,6,13) occ(170,6,8) occ(181,6,1) occ(5,7,10) occ(20,7,4) occ(33,7,8) occ(42,7,1) occ(55,7,7) occ(74,7,5) occ(81,7,14) occ(94,7,3) occ(103,7,11) occ(126,7,9) occ(133,7,2) occ(153,7,12) occ(16,8,7) occ(35,8,10) occ(41,8,13) occ(72,8,3) occ(82,8,2) occ(92,8,1) occ(106,8,12) occ(122,8,6) occ(128,8,11) occ(131,8,4) occ(155,8,14) occ(160,8,5) occ(168,8,9) occ(7,9,11) occ(31,9,9) occ(37,9,12) occ(44,9,2) occ(70,9,1) occ(76,9,6) occ(80,9,4) occ(83,9,13) occ(86,9,5) occ(90,9,3) occ(101,9,10) occ(158,9,7) occ(164,9,8) occ(9,10,13) occ(13,10,9) occ(14,10,8) occ(29,10,7) occ(39,10,14) occ(46,10,4) occ(84,10,3) occ(108,10,11) occ(120,10,5) occ(130,10,12) occ(162,10,6) occ(166,10,10) occ(11,11,11) occ(15,11,7) occ(50,11,1) occ(68,11,2) occ(78,11,5) occ(85,11,12) occ(88,11,4) occ(99,11,9) occ(132,11,14) occ(144,11,10) occ(148,11,6) occ(156,11,8) occ(4,12,1) occ(12,12,7) occ(21,12,9) occ(27,12,6) occ(48,12,3) occ(56,12,5) occ(62,12,2) occ(87,12,14) occ(93,12,13) occ(110,12,10) occ(118,12,4) occ(138,12,12) occ(146,12,8) occ(8,13,4) occ(17,13,6) occ(25,13,8) occ(52,13,2) occ(58,13,3) occ(66,13,1) occ(89,13,12) occ(97,13,10) occ(114,13,7) occ(134,13,13) occ(142,13,11) occ(150,13,5) occ(154,13,9) occ(6,14,2) occ(10,14,6) occ(19,14,8) occ(23,14,10) occ(54,14,4) occ(60,14,1) occ(64,14,3) occ(91,14,14) occ(95,14,12) occ(112,14,9) occ(116,14,5) occ(136,14,11) occ(140,14,13) occ(152,14,7)
Optimization: -183
*** Info : (clingo): INTERRUPTED by signal!
SATISFIABLE

TIME LIMIT   : 1
Models       : 17+
  Optimum    : unknown
Optimization : -183
Calls        : 1
Time         : 300.000s (Solving: 285.39s 1st Model: 0.01s Unsat: 0.00s)
CPU Time     : 299.967s
